NAME: instance_227
TYPE: TSP
DIMENSION: 20
EDGE_WEIGHT_TYPE: EUC_2D
NODE_COORD_SECTION
0 60.36 93.09
1 97.66 59.41
2 5.57 21.63
3 48.64 93.88
4 5.89 49.73
5 58.32 12.74
6 60.21 47.49
7 78.08 66.78
8 25.37 41.73
9 3.51 57.83
10 21.31 71.63
11 60.46 67.51
12 87.65 80.46
13 56.05 17.43
14 42.37 75.12
15 37.58 58.33
16 98.02 49.93
17 59.63 21.61
18 28.70 10.42
19 59.52 46.06
EOF
